CPXPARAM_TimeLimit                               3600
CPXPARAM_Read_DataCheck                          1
Parallel mode: deterministic, using up to 8 threads for concurrent optimization.
Tried aggregator 1 time.
No LP presolve or aggregator reductions.
Presolve time = 0.00 sec. (3.13 ticks)

Iteration log . . .
Iteration:     1   Dual objective     =          1170.000000
Perturbation started.
Iteration:   101   Dual objective     =          1170.000000
Iteration:   238   Dual objective     =          1170.027109
Iteration:   389   Dual objective     =          1170.055864
Iteration:   614   Dual objective     =          1170.055869
Iteration:   841   Dual objective     =          1170.055873
Iteration:  1063   Dual objective     =          1170.055875
Iteration:  1291   Dual objective     =          1170.055878
Iteration:  1519   Dual objective     =          1170.055880
Iteration:  1742   Dual objective     =          1170.055881
Iteration:  1970   Dual objective     =          1170.055882
Iteration:  2211   Dual objective     =          1170.055882
Removing perturbation.

Dual simplex solved model.

